102970
1,10,29,64,73,45,46,54,80,62,70,14,67,76,26,36,66,71,20,9,77,58,17,56,7,74,32,40,82,44,22,5,19,31,24,48,21,13,37,18,65,50,4,63,52,41,39,83,8,53,59,68,28,35,30,2,38,16,75,11,33,27,51,72,81,60,47,49,34,57,43,3,12,23,55,42,25,69,15,79,6,61,78